
Gurobi 6.5.2 (win64) logging started 07/22/16 21:17:12


Gurobi 6.5.2 (win64) logging started 07/22/16 21:17:12

Optimize a model with 2625 rows, 710 columns and 6814 nonzeros
Coefficient statistics:
  Matrix range    [6e-08, 1e+03]
  Objective range [1e+00, 1e+00]
  Bounds range    [1e+00, 1e+00]
  RHS range       [6e-06, 1e+03]
Presolve removed 2402 rows and 481 columns
Presolve time: 0.02s
Presolved: 223 rows, 229 columns, 968 nonzeros
Variable types: 229 continuous, 0 integer (0 binary)

Root relaxation: objective 1.666467e+02, 271 iterations, 0.00 seconds

    Nodes    |    Current Node    |     Objective Bounds      |     Work
 Expl Unexpl |  Obj  Depth IntInf | Incumbent    BestBd   Gap | It/Node Time

*    0     0               0     166.6467139  166.64671  0.00%     -    0s

Explored 0 nodes (271 simplex iterations) in 0.02 seconds
Thread count was 8 (of 8 available processors)

Optimal solution found (tolerance 1.00e-04)
Best objective 1.666467139040e+02, best bound 1.666467139040e+02, gap 0.0%

Wrote requested result file 'H1\instance11\\Results11EC_Sol2.lp'


Gurobi 6.5.2 (win64) logging started 07/22/16 21:22:00


Gurobi 6.5.2 (win64) logging started 07/22/16 21:22:00

Optimize a model with 2625 rows, 710 columns and 6814 nonzeros
Coefficient statistics:
  Matrix range    [6e-08, 1e+03]
  Objective range [1e+00, 1e+00]
  Bounds range    [1e+00, 1e+00]
  RHS range       [6e-06, 1e+03]
Presolve removed 2402 rows and 481 columns
Presolve time: 0.00s
Presolved: 223 rows, 229 columns, 968 nonzeros
Variable types: 229 continuous, 0 integer (0 binary)

Root relaxation: objective 1.666467e+02, 271 iterations, 0.00 seconds

    Nodes    |    Current Node    |     Objective Bounds      |     Work
 Expl Unexpl |  Obj  Depth IntInf | Incumbent    BestBd   Gap | It/Node Time

*    0     0               0     166.6467139  166.64671  0.00%     -    0s

Explored 0 nodes (271 simplex iterations) in 0.02 seconds
Thread count was 8 (of 8 available processors)

Optimal solution found (tolerance 1.00e-04)
Best objective 1.666467139040e+02, best bound 1.666467139040e+02, gap 0.0%

Wrote requested result file 'H1\instance11\\Results11EC_Sol2.lp'

